Minimize
  - 94 y_0 - 65 y_1 - 67 y_2 - 24 y_3 - 106 y_4 - 54 y_5 - 66 y_6 - 42 y_7
   - 52 y_8 - 73 y_9 - 80 y_10 - 85 y_11 - 34 y_12 - 86 y_13 - 22 y_14
   - 79 y_16 - 23 y_17 - 74 y_18 - 101 y_19 + 1227 Constant
Subject To
 c_0: y_15 = 1
 c_1_0: y_0 >= 1
 c_1_1: y_1 + y_6 >= 1
 c_1_2: y_2 >= 1
 c_1_3: y_3 + y_14 >= 1
 c_1_4: y_4 + y_19 >= 1
 c_1_5: y_5 >= 1
 c_1_6: y_1 + y_6 >= 1
 c_1_7: y_7 >= 1
 c_1_8: y_8 >= 1
 c_1_9: y_9 + y_10 + y_16 + y_18 >= 1
 c_1_10: y_9 + y_10 + y_11 + y_16 + y_18 >= 1
 c_1_11: y_10 + y_11 >= 1
 c_1_12: y_12 >= 1
 c_1_13: y_13 >= 1
 c_1_14: y_3 + y_14 >= 1
 c_1_15: y_15 >= 1
 c_1_16: y_9 + y_10 + y_16 + y_18 >= 1
 c_1_17: y_17 >= 1
 c_1_18: y_9 + y_10 + y_16 + y_18 >= 1
 c_1_19: y_4 + y_19 >= 1
Bounds
 Constant = 1
Binaries
 y_0 y_1 y_2 y_3 y_4 y_5 y_6 y_7 y_8 y_9 y_10 y_11 y_12 y_13 y_14 y_15 y_16
 y_17 y_18 y_19
End
